p cnf 12 50 
5 -6 8 0
-11 -3 6 0
7 -3 8 0
-11 -9 -10 0
-12 7 -4 0
-8 7 3 0
8 -1 7 0
3 2 12 0
-3 6 -8 0
-2 11 4 0
2 10 -5 0
-5 4 1 0
8 1 -9 0
11 -4 -2 0
-10 11 4 0
8 -7 -4 0
-4 -2 -1 0
1 -5 -11 0
11 10 6 0
5 2 7 0
-5 12 -7 0
-8 -7 2 0
-5 11 2 0
11 1 -5 0
7 12 8 0
-8 -1 -10 0
-8 12 11 0
12 9 -10 0
1 -11 10 0
-9 -1 -6 0
-11 -1 10 0
-12 -7 -8 0
3 -5 10 0
12 5 -11 0
-12 -8 -11 0
7 -3 -12 0
2 -4 -10 0
5 -2 -10 0
5 -3 -2 0
-10 6 4 0
11 3 5 0
-12 -11 7 0
11 12 6 0
1 -4 7 0
-11 -2 -12 0
-9 3 -8 0
11 -8 -12 0
5 3 -7 0
-7 12 6 0
5 11 -8 0
